Route #1: 22 8 4 19 33 26 25 11 16 29 
Route #2: 2 15 32 13 9 39 
Route #3: 18 44 34 7 27 14 10 30 
Route #4: 1 36 37 24 35 20 38 31 3 
Route #5: 23 17 41 43 21 12 6 40 42 5 28 
cost 834.525
execution_time 24.656
